************************************************************************
file with basedata            : md335_.bas
initial value random generator: 1869607587
************************************************************************
projects                      :  1
jobs (incl. supersource/sink ):  22
horizon                       :  148
RESOURCES
  - renewable                 :  2   R
  - nonrenewable              :  2   N
  - doubly constrained        :  0   D
************************************************************************
PROJECT INFORMATION:
pronr.  #jobs rel.date duedate tardcost  MPM-Time
    1     20      0       24        3       24
************************************************************************
PRECEDENCE RELATIONS:
jobnr.    #modes  #successors   successors
   1        1          3           2   3   4
   2        3          3           6  13  14
   3        3          1           5
   4        3          3           8  12  14
   5        3          3           9  13  15
   6        3          3           7  17  18
   7        3          3           9  12  20
   8        3          3           9  11  15
   9        3          1          10
  10        3          1          21
  11        3          2          13  20
  12        3          1          21
  13        3          2          17  21
  14        3          3          16  17  18
  15        3          1          18
  16        3          2          19  20
  17        3          1          19
  18        3          1          19
  19        3          1          22
  20        3          1          22
  21        3          1          22
  22        1          0        
************************************************************************
REQUESTS/DURATIONS:
jobnr. mode duration  R 1  R 2  N 1  N 2
------------------------------------------------------------------------
  1      1     0       0    0    0    0
  2      1     2       8    7    5    0
         2     3       7    6    3    0
         3     8       7    6    0    5
  3      1     1       9    8    6    0
         2     2       6    7    0    6
         3     7       6    6    5    0
  4      1     3       8    6    0    8
         2     4       7    6    9    0
         3     5       7    5    0    7
  5      1     4       6    9    8    0
         2     4       7    9    0    4
         3     6       5    7    9    0
  6      1     4       8    8    0    8
         2     4       8    8    6    0
         3     8       7    7    0    8
  7      1     2       7   10    3    0
         2     4       7    8    0    7
         3     8       6    8    0    4
  8      1     2       5    7    8    0
         2     8       4    5    0    8
         3    10       3    4    0    8
  9      1     4       6    7    0    2
         2     5       6    3    0    2
         3     5       5    5    0    2
 10      1     7       8    5    5    0
         2     8       6    5    0    3
         3     9       6    4    0    3
 11      1     3       7    9    8    0
         2     5       6    9    6    0
         3     8       5    9    5    0
 12      1     1       9    7    0    6
         2     9       7    6    6    0
         3    10       2    3    0    3
 13      1     3       4    2    0    8
         2     4       2    2    0    6
         3     5       2    2    4    0
 14      1     2      10    6    5    0
         2     5       9    6    0    7
         3     9       9    6    0    5
 15      1     1       3    3    4    0
         2     3       2    3    0    5
         3     9       2    3    4    0
 16      1     1       7    6    0    9
         2     3       6    6    7    0
         3     3       6    6    0    7
 17      1     5       7    8    7    0
         2     6       6    8    5    0
         3     7       4    6    0    8
 18      1     1       3    2    9    0
         2     5       3    2    7    0
         3     7       2    2    6    0
 19      1     1       8    3    6    0
         2     9       8    3    5    0
         3    10       4    2    2    0
 20      1     2       4    8    0    6
         2     3       3    5    0    5
         3     4       3    3    0    3
 21      1     5       6    8    2    0
         2     5       7    7    0    7
         3    10       5    6    2    0
 22      1     0       0    0    0    0
************************************************************************
RESOURCEAVAILABILITIES:
  R 1  R 2  N 1  N 2
   25   25   61   56
************************************************************************
MAXIMAL LAGS:
from  to  type  delay
    1   12   ES      0
    1    2   ES      0
    2   12   ES      0
    1    3   ES      0
    3   12   ES      0
    1    4   ES      0
    4   12   ES      0
    1    5   ES      0
    5   12   ES      0
    1    6   ES      0
    6   12   ES      0
    1    7   ES      0
    7   12   ES      0
    1    8   ES      0
    8   12   ES      0
    1    9   ES      0
    9   12   ES      0
    1   10   ES      0
   10   12   ES      0
    1   11   ES      0
   11   12   ES      0
    1   12   ES      0
    2    6   SS     -9
    2    6   SE     -9
    2    6   ES     11
    2    6   EE     -5
    2   13   SS      5
    2   13   SE      0
    2   13   ES     -6
    2   13   EE     -6
    2   14   SS      4
    2   14   SE      9
    2   14   ES     -5
    2   14   EE      6
    3    5   SS      8
    3    5   SE     -7
    3    5   ES      5
    3    5   EE     11
    4    8   SS      5
    4    8   SE      1
    4    8   ES     11
    4    8   EE     -9
    4   14   SS     12
    4   14   SE      8
    4   14   ES      6
    4   14   EE     -1
    5    9   SS      9
    5    9   SE      2
    5    9   ES     10
    5    9   EE      9
    5   13   SS      1
    5   13   SE     -9
    5   13   ES     -7
    5   13   EE     -7
    5   15   SS      5
    5   15   SE      0
    5   15   ES      4
    5   15   EE     -2
    6    7   SS      9
    6    7   SE     -7
    6    7   ES      5
    6    7   EE      7
    6   17   SS      2
    6   17   SE     -1
    6   17   ES     -2
    6   17   EE      5
    6   18   SS     -2
    6   18   SE     -1
    6   18   ES      1
    6   18   EE     12
    7    9   SS      8
    7    9   SE      1
    7    9   ES     11
    7    9   EE     -2
    7   20   SS      7
    7   20   SE     -5
    7   20   ES      6
    7   20   EE      5
    8    9   SS     -6
    8    9   SE      0
    8    9   ES     12
    8    9   EE      5
    8   11   SS     11
    8   11   SE     -4
    8   11   ES     -1
    8   11   EE      2
    8   15   SS      2
    8   15   SE      0
    8   15   ES    -12
    8   15   EE     11
    9   10   SS    -11
    9   10   SE     -3
    9   10   ES      7
    9   10   EE    -12
   10   21   SS      4
   10   21   SE     -8
   10   21   ES     -3
   10   21   EE    -12
   11   13   SS     -3
   11   13   SE     -5
   11   13   ES     -6
   11   13   EE     -2
   11   20   SS    -12
   11   20   SE     12
   11   20   ES     10
   11   20   EE     -4
   12   21   SS      5
   12   21   SE      4
   12   21   ES      5
   12   21   EE      6
   13   17   SS      6
   13   17   SE     -8
   13   17   ES     -9
   13   17   EE    -11
   13   21   SS      2
   13   21   SE     -1
   13   21   ES     -8
   13   21   EE     -8
   14   16   SS     -4
   14   16   SE     -1
   14   16   ES      6
   14   16   EE     -5
   14   17   SS     -5
   14   17   SE     -4
   14   17   ES     -3
   14   17   EE    -10
   14   18   SS      6
   14   18   SE      0
   14   18   ES      6
   14   18   EE     -6
   15   18   SS     11
   15   18   SE    -10
   15   18   ES     11
   15   18   EE     -2
   16   19   SS      3
   16   19   SE     -7
   16   19   ES      3
   16   19   EE     10
   16   20   SS     10
   16   20   SE      6
   16   20   ES     -9
   16   20   EE      7
   17   19   SS      8
   17   19   SE     -3
   17   19   ES    -11
   17   19   EE     11
   18   19   SS      6
   18   19   SE      0
   18   19   ES    -10
   18   19   EE     12
   19   22   SS    -11
   19   22   SE     12
   19   22   ES     -2
   19   22   EE     -1
   20   22   SS      1
   20   22   SE      1
   20   22   ES     -9
   20   22   EE     12
   21   22   SS     -5
   21   22   SE     11
   21   22   ES      8
   21   22   EE      7
************************************************************************
